%nprocs=32
%mem=64GB
%chk=%basename%.chk
#t mn15 6-31+G** symm=none int=(grid=ultrafine) 6d 10f guess=(read,tcheck)

title

%charge% %mult%
%xyz%
%term_loop%
--Link1--
%nprocs=32
%mem=64GB
%chk=%basename%.chk
#t mn15 6-31+G** iop(5/13=1,5/36=2,99/5=2) pseudo=read geom=check guess=(read,tcheck) scf=(maxcycle=1)

title

%charge% %mult%

-%term_atsymbol% 0
%term_atsymbol_lstr_gaussian%
1
2 %term_exp% 0.001
%term_endloop%
